set VV := 0 1 2 3 4 5 6 7 8 9 10 11 ;
set VS := 0 1 2 3 4 5 6 7 8 9 10 11 12 13 14 15 16 17 18 19 20 21 22 23 24 25 26 27 ;
param cv := 
0 13
1 17
2 12
3 22
4 24
5 24
6 19
7 18
8 11
9 18
10 24
11 19
;
param cs := 
0 22
1 26
2 31
3 20
4 29
5 20
6 28
7 36
8 37
9 28
10 32
11 29
12 32
13 37
14 40
15 37
16 35
17 28
18 32
19 23
20 32
21 31
22 36
23 33
24 23
25 37
26 21
27 40
;
param bv:	 0 1 2 3 4 5 6 7 8 9 10 11 := 
		0 0 0 0 0 0 0 0 18 0 0 0 23 
		1 0 0 0 0 25 0 0 0 18 0 16 0 
		2 0 0 0 0 0 13 0 0 0 0 22 0 
		3 0 0 0 0 0 15 0 0 0 0 0 0 
		4 0 0 0 0 0 0 0 0 0 22 0 0 
		5 0 0 0 0 0 0 14 0 0 0 0 0 
		6 0 0 0 0 0 0 0 0 0 0 0 0 
		7 0 0 0 0 0 0 0 0 23 0 0 0 
		8 0 0 0 0 0 0 0 0 0 0 0 0 
		9 0 0 0 0 0 0 0 0 0 0 0 0 
		10 0 0 0 0 0 0 0 0 0 0 0 0 
		11 0 0 0 0 0 0 0 0 0 0 0 0 
;
param bs:	 0 1 2 3 4 5 6 7 8 9 10 11 12 13 14 15 16 17 18 19 20 21 22 23 24 25 26 27 := 
		0 0 0 0 0 0 0 0 38 26 0 0 0 0 0 0 0 0 0 0 0 0 0 0 0 36 0 38 0 
		1 0 0 0 0 0 21 0 0 0 0 0 0 0 37 0 0 0 0 0 0 40 40 0 0 0 0 0 0 
		2 0 0 0 0 0 0 0 0 0 0 20 0 0 0 0 20 0 0 0 0 0 0 0 0 0 0 0 0 
		3 0 0 0 0 0 0 0 0 0 0 0 0 0 0 0 0 0 0 0 33 0 0 0 0 0 34 0 0 
		4 0 0 0 0 0 28 0 0 0 31 0 0 0 0 0 0 0 0 26 0 0 0 0 0 0 0 0 0 
		5 0 21 0 0 28 0 0 0 0 0 0 0 0 0 0 0 0 0 0 0 39 0 0 0 0 0 0 0 
		6 0 0 0 0 0 0 0 0 0 0 0 0 0 0 0 0 0 0 38 37 0 0 0 0 0 0 0 0 
		7 38 0 0 0 0 0 0 0 38 0 0 0 0 0 0 0 38 0 0 0 0 0 0 0 0 0 0 0 
		8 26 0 0 0 0 0 0 38 0 0 0 0 0 0 0 21 0 0 0 0 0 0 0 0 27 0 0 0 
		9 0 0 0 0 31 0 0 0 0 0 33 0 0 0 0 0 35 0 0 0 0 37 0 0 0 0 0 0 
		10 0 0 20 0 0 0 0 0 0 33 0 0 23 0 0 0 0 0 0 0 31 0 37 0 23 0 0 0 
		11 0 0 0 0 0 0 0 0 0 0 0 0 0 0 0 0 0 0 0 0 0 0 27 0 0 0 0 0 
		12 0 0 0 0 0 0 0 0 0 0 23 0 0 0 0 39 0 0 0 0 33 0 0 0 0 0 0 0 
		13 0 37 0 0 0 0 0 0 0 0 0 0 0 0 0 0 0 40 0 22 0 0 0 0 0 0 0 21 
		14 0 0 0 0 0 0 0 0 0 0 0 0 0 0 0 0 0 0 0 0 0 22 0 0 0 0 0 0 
		15 0 0 20 0 0 0 0 0 21 0 0 0 39 0 0 0 0 0 0 0 0 0 0 0 0 0 0 0 
		16 0 0 0 0 0 0 0 38 0 35 0 0 0 0 0 0 0 0 0 0 0 0 0 0 0 20 40 28 
		17 0 0 0 0 0 0 0 0 0 0 0 0 0 40 0 0 0 0 0 29 0 0 0 0 0 0 0 0 
		18 0 0 0 0 26 0 38 0 0 0 0 0 0 0 0 0 0 0 0 0 0 30 34 0 0 38 30 0 
		19 0 0 0 33 0 0 37 0 0 0 0 0 0 22 0 0 0 29 0 0 0 0 0 39 0 0 0 0 
		20 0 40 0 0 0 39 0 0 0 0 31 0 33 0 0 0 0 0 0 0 0 0 0 0 0 0 0 30 
		21 0 40 0 0 0 0 0 0 0 37 0 0 0 0 22 0 0 0 30 0 0 0 0 0 0 40 0 0 
		22 0 0 0 0 0 0 0 0 0 0 37 27 0 0 0 0 0 0 34 0 0 0 0 0 0 0 0 0 
		23 0 0 0 0 0 0 0 0 0 0 0 0 0 0 0 0 0 0 0 39 0 0 0 0 0 0 0 0 
		24 36 0 0 0 0 0 0 0 27 0 23 0 0 0 0 0 0 0 0 0 0 0 0 0 0 0 0 0 
		25 0 0 0 34 0 0 0 0 0 0 0 0 0 0 0 0 20 0 38 0 0 40 0 0 0 0 0 0 
		26 38 0 0 0 0 0 0 0 0 0 0 0 0 0 0 0 40 0 30 0 0 0 0 0 0 0 0 0 
		27 0 0 0 0 0 0 0 0 0 0 0 0 0 21 0 0 28 0 0 0 30 0 0 0 0 0 0 0 
;
